p cnf 144 1
144 0
w 1 0.578223
w 2 1 1
w 2 -1 0
w 3 2 0.434212
w 3 -2 0.324925
w 4 3 0.342491
w 4 -3 0.728192
w 5 4 1
w 5 -4 0
w 6 5 0.97463
w 6 -5 0.822319
w 7 6 1
w 7 -6 0
w 8 7 0
w 8 -7 1
w 9 8 0.643163
w 9 -8 0.245135
w 10 9 1
w 10 -9 0
w 11 10 0
w 11 -10 1
w 12 11 1
w 12 -11 0
w 13 1 0
w 13 -1 1
w 14 13 2 0
w 14 13 -2 0
w 14 -13 2 1
w 14 -13 -2 1
w 15 14 3 0.839407
w 15 14 -3 0.898404
w 15 -14 3 0.584425
w 15 -14 -3 0.181898
w 16 15 4 0.611078
w 16 15 -4 0.226454
w 16 -15 4 0.408959
w 16 -15 -4 0.585707
w 17 16 5 1
w 17 16 -5 0
w 17 -16 5 0
w 17 -16 -5 1
w 18 17 6 0
w 18 17 -6 1
w 18 -17 6 1
w 18 -17 -6 0
w 19 18 7 0.493071
w 19 18 -7 0.640349
w 19 -18 7 0.899422
w 19 -18 -7 0.523984
w 20 19 8 0
w 20 19 -8 1
w 20 -19 8 0
w 20 -19 -8 0
w 21 20 9 0.412173
w 21 20 -9 0.19787
w 21 -20 9 0.516184
w 21 -20 -9 0.594071
w 22 21 10 0.127261
w 22 21 -10 0.820524
w 22 -21 10 0.233426
w 22 -21 -10 0.712968
w 23 22 11 0.935823
w 23 22 -11 0.27478
w 23 -22 11 0.117116
w 23 -22 -11 0.948598
w 24 23 12 0.00809778
w 24 23 -12 0.206508
w 24 -23 12 0.183201
w 24 -23 -12 0.336652
w 25 13 0.676272
w 25 -13 0.977001
w 26 25 14 0.200256
w 26 25 -14 0.0654123
w 26 -25 14 0.979525
w 26 -25 -14 0.926243
w 27 26 15 0
w 27 26 -15 1
w 27 -26 15 0
w 27 -26 -15 0
w 28 27 16 0.558534
w 28 27 -16 0.248046
w 28 -27 16 0.755312
w 28 -27 -16 0.379058
w 29 28 17 0
w 29 28 -17 1
w 29 -28 17 1
w 29 -28 -17 0
w 30 29 18 1
w 30 29 -18 1
w 30 -29 18 0
w 30 -29 -18 1
w 31 30 19 0.484933
w 31 30 -19 0.105373
w 31 -30 19 0.687222
w 31 -30 -19 0.296888
w 32 31 20 1
w 32 31 -20 1
w 32 -31 20 0
w 32 -31 -20 1
w 33 32 21 0
w 33 32 -21 0
w 33 -32 21 1
w 33 -32 -21 1
w 34 33 22 1
w 34 33 -22 0
w 34 -33 22 0
w 34 -33 -22 1
w 35 34 23 0.979114
w 35 34 -23 0.027973
w 35 -34 23 0.639313
w 35 -34 -23 0.344585
w 36 35 24 0
w 36 35 -24 0
w 36 -35 24 1
w 36 -35 -24 0
w 37 25 0
w 37 -25 1
w 38 37 26 1
w 38 37 -26 1
w 38 -37 26 0
w 38 -37 -26 0
w 39 38 27 0
w 39 38 -27 1
w 39 -38 27 0
w 39 -38 -27 0
w 40 39 28 0.646368
w 40 39 -28 0.295934
w 40 -39 28 0.518244
w 40 -39 -28 0.998069
w 41 40 29 0
w 41 40 -29 1
w 41 -40 29 1
w 41 -40 -29 1
w 42 41 30 0.0637932
w 42 41 -30 0.481783
w 42 -41 30 0.0525272
w 42 -41 -30 0.457658
w 43 42 31 1
w 43 42 -31 1
w 43 -42 31 0
w 43 -42 -31 1
w 44 43 32 0.100996
w 44 43 -32 0.314652
w 44 -43 32 0.623204
w 44 -43 -32 0.826312
w 45 44 33 1
w 45 44 -33 1
w 45 -44 33 0
w 45 -44 -33 1
w 46 45 34 1
w 46 45 -34 0
w 46 -45 34 0
w 46 -45 -34 0
w 47 46 35 0
w 47 46 -35 0
w 47 -46 35 1
w 47 -46 -35 1
w 48 47 36 0
w 48 47 -36 0
w 48 -47 36 1
w 48 -47 -36 0
w 49 37 1
w 49 -37 0
w 50 49 38 0
w 50 49 -38 0
w 50 -49 38 1
w 50 -49 -38 1
w 51 50 39 0.919027
w 51 50 -39 0.398866
w 51 -50 39 0.593766
w 51 -50 -39 0.101909
w 52 51 40 0
w 52 51 -40 0
w 52 -51 40 0
w 52 -51 -40 1
w 53 52 41 0.694743
w 53 52 -41 0.0697472
w 53 -52 41 0.262891
w 53 -52 -41 0.840083
w 54 53 42 0.556793
w 54 53 -42 0.714253
w 54 -53 42 0.944263
w 54 -53 -42 0.693164
w 55 54 43 0
w 55 54 -43 1
w 55 -54 43 1
w 55 -54 -43 1
w 56 55 44 1
w 56 55 -44 1
w 56 -55 44 0
w 56 -55 -44 0
w 57 56 45 1
w 57 56 -45 1
w 57 -56 45 0
w 57 -56 -45 0
w 58 57 46 0.561482
w 58 57 -46 0.701414
w 58 -57 46 0.0473994
w 58 -57 -46 0.108953
w 59 58 47 1
w 59 58 -47 0
w 59 -58 47 0
w 59 -58 -47 0
w 60 59 48 0.335797
w 60 59 -48 0.78229
w 60 -59 48 0.358032
w 60 -59 -48 0.28006
w 61 49 0
w 61 -49 1
w 62 61 50 1
w 62 61 -50 0
w 62 -61 50 1
w 62 -61 -50 1
w 63 62 51 0.023514
w 63 62 -51 0.0461658
w 63 -62 51 0.862418
w 63 -62 -51 0.139562
w 64 63 52 0.722142
w 64 63 -52 0.654475
w 64 -63 52 0.100691
w 64 -63 -52 0.683775
w 65 64 53 0
w 65 64 -53 1
w 65 -64 53 1
w 65 -64 -53 1
w 66 65 54 0.128605
w 66 65 -54 0.425761
w 66 -65 54 0.919278
w 66 -65 -54 0.772384
w 67 66 55 0.701568
w 67 66 -55 0.130415
w 67 -66 55 0.0416173
w 67 -66 -55 0.177023
w 68 67 56 0.284902
w 68 67 -56 0.963796
w 68 -67 56 0.37021
w 68 -67 -56 0.96803
w 69 68 57 1
w 69 68 -57 1
w 69 -68 57 0
w 69 -68 -57 0
w 70 69 58 1
w 70 69 -58 0
w 70 -69 58 1
w 70 -69 -58 0
w 71 70 59 0.00153719
w 71 70 -59 0.772543
w 71 -70 59 0.291441
w 71 -70 -59 0.326447
w 72 71 60 0.985222
w 72 71 -60 0.455052
w 72 -71 60 0.277363
w 72 -71 -60 0.9045
w 73 61 1
w 73 -61 0
w 74 73 62 0.357851
w 74 73 -62 0.0805382
w 74 -73 62 0.783091
w 74 -73 -62 0.142662
w 75 74 63 1
w 75 74 -63 0
w 75 -74 63 1
w 75 -74 -63 1
w 76 75 64 0.325014
w 76 75 -64 0.887125
w 76 -75 64 0.959152
w 76 -75 -64 0.456119
w 77 76 65 0.835643
w 77 76 -65 0.241699
w 77 -76 65 0.72731
w 77 -76 -65 0.395909
w 78 77 66 1
w 78 77 -66 0
w 78 -77 66 0
w 78 -77 -66 1
w 79 78 67 0.0247351
w 79 78 -67 0.62882
w 79 -78 67 0.577072
w 79 -78 -67 0.252171
w 80 79 68 0.18314
w 80 79 -68 0.610022
w 80 -79 68 0.748279
w 80 -79 -68 0.966231
w 81 80 69 0.113719
w 81 80 -69 0.713117
w 81 -80 69 0.265556
w 81 -80 -69 0.447189
w 82 81 70 0.0703592
w 82 81 -70 0.772202
w 82 -81 70 0.394165
w 82 -81 -70 0.0295111
w 83 82 71 1
w 83 82 -71 0
w 83 -82 71 1
w 83 -82 -71 1
w 84 83 72 0
w 84 83 -72 1
w 84 -83 72 1
w 84 -83 -72 0
w 85 73 0.620986
w 85 -73 0.307676
w 86 85 74 1
w 86 85 -74 1
w 86 -85 74 1
w 86 -85 -74 0
w 87 86 75 1
w 87 86 -75 0
w 87 -86 75 0
w 87 -86 -75 0
w 88 87 76 0
w 88 87 -76 0
w 88 -87 76 1
w 88 -87 -76 1
w 89 88 77 0
w 89 88 -77 1
w 89 -88 77 1
w 89 -88 -77 1
w 90 89 78 0
w 90 89 -78 1
w 90 -89 78 1
w 90 -89 -78 0
w 91 90 79 0
w 91 90 -79 0
w 91 -90 79 0
w 91 -90 -79 1
w 92 91 80 1
w 92 91 -80 0
w 92 -91 80 0
w 92 -91 -80 0
w 93 92 81 0.839536
w 93 92 -81 0.258183
w 93 -92 81 0.910279
w 93 -92 -81 0.762089
w 94 93 82 0
w 94 93 -82 0
w 94 -93 82 0
w 94 -93 -82 1
w 95 94 83 0.500158
w 95 94 -83 0.496646
w 95 -94 83 0.925339
w 95 -94 -83 0.612944
w 96 95 84 0.731287
w 96 95 -84 0.604076
w 96 -95 84 0.0639767
w 96 -95 -84 0.250493
w 97 85 0.426588
w 97 -85 0.0526387
w 98 97 86 0
w 98 97 -86 1
w 98 -97 86 1
w 98 -97 -86 1
w 99 98 87 0
w 99 98 -87 0
w 99 -98 87 1
w 99 -98 -87 1
w 100 99 88 0
w 100 99 -88 1
w 100 -99 88 1
w 100 -99 -88 0
w 101 100 89 0.592617
w 101 100 -89 0.489353
w 101 -100 89 0.07436
w 101 -100 -89 0.0892633
w 102 101 90 0
w 102 101 -90 0
w 102 -101 90 1
w 102 -101 -90 1
w 103 102 91 0.396473
w 103 102 -91 0.26479
w 103 -102 91 0.229607
w 103 -102 -91 0.449111
w 104 103 92 1
w 104 103 -92 0
w 104 -103 92 0
w 104 -103 -92 0
w 105 104 93 0.386321
w 105 104 -93 0.115363
w 105 -104 93 0.152354
w 105 -104 -93 0.451291
w 106 105 94 0.570493
w 106 105 -94 0.487084
w 106 -105 94 0.933067
w 106 -105 -94 0.470435
w 107 106 95 1
w 107 106 -95 0
w 107 -106 95 0
w 107 -106 -95 0
w 108 107 96 0.353991
w 108 107 -96 0.52046
w 108 -107 96 0.11433
w 108 -107 -96 0.157011
w 109 97 0.37912
w 109 -97 0.386618
w 110 109 98 0
w 110 109 -98 0
w 110 -109 98 0
w 110 -109 -98 1
w 111 110 99 1
w 111 110 -99 1
w 111 -110 99 0
w 111 -110 -99 1
w 112 111 100 0.0956523
w 112 111 -100 0.0857945
w 112 -111 100 0.186834
w 112 -111 -100 0.582736
w 113 112 101 1
w 113 112 -101 0
w 113 -112 101 1
w 113 -112 -101 1
w 114 113 102 0.159495
w 114 113 -102 0.991538
w 114 -113 102 0.602618
w 114 -113 -102 0.513486
w 115 114 103 0.716948
w 115 114 -103 0.670496
w 115 -114 103 0.428931
w 115 -114 -103 0.0960681
w 116 115 104 1
w 116 115 -104 0
w 116 -115 104 1
w 116 -115 -104 1
w 117 116 105 1
w 117 116 -105 0
w 117 -116 105 0
w 117 -116 -105 0
w 118 117 106 0.47608
w 118 117 -106 0.0815782
w 118 -117 106 0.816378
w 118 -117 -106 0.662915
w 119 118 107 0.83524
w 119 118 -107 0.320184
w 119 -118 107 0.308337
w 119 -118 -107 0.379786
w 120 119 108 0.0880052
w 120 119 -108 0.539281
w 120 -119 108 0.928779
w 120 -119 -108 0.690623
w 121 109 1
w 121 -109 0
w 122 121 110 1
w 122 121 -110 0
w 122 -121 110 0
w 122 -121 -110 1
w 123 122 111 0.316019
w 123 122 -111 0.8639
w 123 -122 111 0.437273
w 123 -122 -111 0.71177
w 124 123 112 1
w 124 123 -112 1
w 124 -123 112 0
w 124 -123 -112 1
w 125 124 113 0
w 125 124 -113 1
w 125 -124 113 1
w 125 -124 -113 1
w 126 125 114 0
w 126 125 -114 1
w 126 -125 114 0
w 126 -125 -114 0
w 127 126 115 0.0242483
w 127 126 -115 0.985212
w 127 -126 115 0.337486
w 127 -126 -115 0.43182
w 128 127 116 0.207194
w 128 127 -116 0.935459
w 128 -127 116 0.488851
w 128 -127 -116 0.871877
w 129 128 117 1
w 129 128 -117 1
w 129 -128 117 0
w 129 -128 -117 1
w 130 129 118 0.534756
w 130 129 -118 0.749606
w 130 -129 118 0.302089
w 130 -129 -118 0.582346
w 131 130 119 1
w 131 130 -119 0
w 131 -130 119 1
w 131 -130 -119 1
w 132 131 120 0
w 132 131 -120 0
w 132 -131 120 1
w 132 -131 -120 0
w 133 121 0.188176
w 133 -121 0.563351
w 134 133 122 0.525662
w 134 133 -122 0.99517
w 134 -133 122 0.512901
w 134 -133 -122 0.732856
w 135 134 123 0.00175163
w 135 134 -123 0.604733
w 135 -134 123 0.182107
w 135 -134 -123 0.354502
w 136 135 124 0.145354
w 136 135 -124 0.912718
w 136 -135 124 0.85421
w 136 -135 -124 0.680111
w 137 136 125 0.156299
w 137 136 -125 0.262457
w 137 -136 125 0.684898
w 137 -136 -125 0.636527
w 138 137 126 0.644755
w 138 137 -126 0.130133
w 138 -137 126 0.878844
w 138 -137 -126 0.850232
w 139 138 127 1
w 139 138 -127 0
w 139 -138 127 0
w 139 -138 -127 1
w 140 139 128 0.640546
w 140 139 -128 0.884149
w 140 -139 128 0.947856
w 140 -139 -128 0.153447
w 141 140 129 0.878485
w 141 140 -129 0.155198
w 141 -140 129 0.221738
w 141 -140 -129 0.0605923
w 142 141 130 0.135621
w 142 141 -130 0.205947
w 142 -141 130 0.422418
w 142 -141 -130 0.989832
w 143 142 131 0.0847414
w 143 142 -131 0.146131
w 143 -142 131 0.148514
w 143 -142 -131 0.769639
w 144 143 132 0.70382
w 144 143 -132 0.414394
w 144 -143 132 0.91279
w 144 -143 -132 0.582664